21398,22041,10996,3203,22225,7703,19621,5954,22509,20445,25795,1773,13802,8095,16094,17227,15523,24261,14212,6661,20173,15770,11873,1930,8956,8957,16473,22698,22,24325,23290,5143,26008,12239,14250,1911,3762,16871,11264,24945,24947,15765,12353,17917,17494,24841,4527,704,9078,23540,25758,6227,2692,12711,18664,8282,16653,8129,17316,15240,15493,16983,13427,12390,12873,20468,2919,26013,11407,5125,8671,10892,12148,20915,980,10694,6128,6135,14573,14341,11833,13027,6576,21398